NAME : Random_ATSP_Instance
TYPE : ATSP
DIMENSION : 11
EDGE_WEIGHT_TYPE : EXPLICIT
EDGE_WEIGHT_FORMAT : FULL_MATRIX
EDGE_WEIGHT_SECTION
970000 3 77 56 75 25 45 12 68 81 31
75 970000 35 23 26 93 89 70 27 10 46
13 21 970000 72 51 9 69 74 4 75 45
37 56 87 970000 63 5 66 8 96 45 17
95 52 47 56 970000 63 60 40 5 96 4
63 27 31 37 55 970000 72 59 91 80 18
5 21 67 34 89 61 970000 82 95 43 66
19 1 17 40 40 89 82 970000 44 59 97
86 86 25 15 2 87 62 13 970000 45 69
13 43 36 81 64 74 53 5 53 970000 42
61 59 75 1 96 56 67 40 73 78 970000
EOF
